max: x0 + x1 + x2 + x3 + x4 + x5 + x6 + x7 + x8 + x9 + x10 + x11 + x12;
200x0 + 400x1 + 600x2 + 800x3 + 200x4 + 400x5 + 600x6 + 800x7 + 200x8 + 400x9 + 600x10 + 800x11 + 200x12 <= 1200;
10x0 + 20x1 + 30x2 + 10x3 + 20x4 + 30x5 + 10x6 + 20x7 + 30x8 + 10x9 + 20x10 + 30x11 + 10x12 <= 120;
x2 >= x10;
x1 = 1;
x11 >= x6;
x0 <= 1;
x1 <= 1;
x2 <= 1;
x3 <= 1;
x4 <= 1;
x5 <= 1;
x6 <= 1;
x7 <= 1;
x8 <= 1;
x9 <= 1;
x10 <= 1;
x11 <= 1;
x12 <= 1;
int x0;
int x1;
int x2;
int x3;
int x4;
int x5;
int x6;
int x7;
int x8;
int x9;
int x10;
int x11;
int x12;
